; benchmark generated from python API
(set-info :status unknown)
(declare-datatypes ((RealState 0)) (((RMk1 (rval1 Real)) (RMk2 (rval2 Real)))))
 (assert
 (forall ((|v17:0| Real) )(forall ((|v16:1| Real) )(forall ((|v15:2| Real) )(forall ((|v14:3| Real) )(forall ((|v13:4| Real) )(forall ((|v12:5| Real) )(exists ((|v11:6_st| RealState) (val!7080 Real) )(exists ((|v10:7_st| RealState) (val!7081 Real) )(exists ((|v9:8_st| RealState) (val!7082 Real) )(exists ((|v8:9_st| RealState) (val!7083 Real) )(exists ((|v7:10_st| RealState) (val!7084 Real) )(exists ((|v6:11_st| RealState) (val!7085 Real) )(forall ((|v5:12| Real) )(forall ((|v4:13| Real) )(forall ((|v3:14| Real) )(forall ((|v2:15| Real) )(forall ((|v1:16| Real) )(forall ((|v0:17| Real) )(let ((?x1464 (- 5.0)))
 (let ((?x828 (* 6.0 |v15:2|)))
 (let ((?x673 (rval2 |v7:10_st|)))
 (let ((?x1120 (* 11.0 ?x673)))
 (let (($x333 (<= (+ (+ (+ (* (- 20.0) |v17:0|) (* (- 15.0) |v17:0|)) ?x1120) ?x828) ?x1464)))
 (let ((?x3031 (- 6.0)))
 (let ((?x3032 (- 8.0)))
 (let ((?x417 (* ?x3032 |v0:17|)))
 (let (($x2395 (<= (+ (+ (+ (* (- 15.0) |v13:4|) (* 9.0 |v3:14|)) |v14:3|) ?x417) ?x3031)))
 (let ((?x2150 (* 7.0 |v13:4|)))
 (let ((?x603 (rval2 |v11:6_st|)))
 (let ((?x1478 (- 12.0)))
 (let ((?x3117 (* ?x1478 ?x603)))
 (let (($x1292 (<= (+ (+ (+ (* 11.0 |v4:13|) (* ?x1478 (rval2 |v6:11_st|))) ?x3117) ?x2150) 3.0)))
 (let ((?x441 (rval2 |v8:9_st|)))
 (let ((?x1106 (* 20.0 ?x441)))
 (let ((?x1294 (- 10.0)))
 (let ((?x2777 (* ?x1294 |v2:15|)))
 (let ((?x961 (+ ?x2777 (* (- 4.0) |v3:14|))))
 (let (($x647 (or (or (<= (+ (+ ?x961 ?x1106) (* (- 20.0) |v16:1|)) 13.0) $x1292) (and $x2395 $x333))))
 (let ((?x3472 (- 11.0)))
 (let ((?x2527 (- 15.0)))
 (let ((?x3334 (* ?x2527 |v13:4|)))
 (let ((?x1376 (- 16.0)))
 (let ((?x694 (* ?x1376 |v4:13|)))
 (let (($x375 (<= (+ (+ (+ (* 14.0 (rval2 |v9:8_st|)) (* (- 1.0) ?x441)) ?x694) ?x3334) ?x3472)))
 (let ((?x613 (* 20.0 |v3:14|)))
 (let ((?x771 (* 16.0 ?x603)))
 (let (($x3167 (<= (+ (+ (+ (* 9.0 (rval2 |v10:7_st|)) (* ?x2527 (rval2 |v9:8_st|))) ?x771) ?x613) 14.0)))
 (let ((?x2969 (* ?x1294 |v4:13|)))
 (let ((?x3160 (+ (+ (+ (* (- 14.0) ?x603) (* 4.0 |v5:12|)) (* 4.0 ?x673)) ?x2969)))
 (let ((?x251 (- 7.0)))
 (let ((?x1896 (* ?x251 |v0:17|)))
 (let ((?x1027 (+ (+ (* 19.0 |v1:16|) (* ?x3472 |v2:15|)) ?x1896)))
 (let (($x139 (or (and (<= (+ ?x1027 (* ?x3031 (rval2 |v6:11_st|))) 16.0) (<= ?x3160 20.0)) (and $x3167 $x375))))
 (let ((?x708 (+ (+ (* (- 17.0) (rval2 |v6:11_st|)) (* 12.0 (rval2 |v9:8_st|))) (* ?x3032 ?x603))))
 (let ((?x2609 (- 13.0)))
 (let ((?x1885 (+ (+ (+ (* ?x3472 (rval2 |v6:11_st|)) (* ?x1376 |v13:4|)) (* ?x1464 |v4:13|)) (* ?x3472 ?x603))))
 (let (($x2013 (or (<= ?x1885 ?x1294) (<= (+ (+ (+ ?x1896 (* (- 17.0) |v0:17|)) ?x3334) (* ?x3032 |v3:14|)) ?x2609))))
 (let ((?x3213 (- 19.0)))
 (let ((?x1438 (* 15.0 |v1:16|)))
 (let (($x1702 (<= (+ (+ (+ (* 3.0 |v16:1|) (* 9.0 ?x441)) (* 3.0 |v2:15|)) ?x1438) ?x3213)))
 (let ((?x3191 (- 3.0)))
 (let ((?x1510 (- 1.0)))
 (let ((?x2417 (* ?x1510 |v1:16|)))
 (let (($x2675 (<= (+ (+ (+ (* 4.0 |v13:4|) (* 12.0 |v1:16|)) (* ?x2609 |v1:16|)) ?x2417) ?x3191)))
 (let ((?x2053 (+ (+ (+ (* 8.0 |v15:2|) (* 8.0 |v14:3|)) (* ?x1376 |v0:17|)) (* (- 20.0) |v14:3|))))
 (let ((?x796 (+ (+ (+ (* 9.0 |v0:17|) (* ?x3213 ?x441)) (* 7.0 |v2:15|)) (* 20.0 |v14:3|))))
 (let (($x1952 (or (or (and (<= ?x796 ?x3031) (<= ?x2053 20.0)) (or $x2675 $x1702)) (or $x2013 (<= (+ ?x708 ?x1896) 8.0)))))
 (let ((?x1512 (* ?x3213 |v4:13|)))
 (let (($x140 (<= (+ (+ (+ (* (- 4.0) |v13:4|) (* 5.0 |v4:13|)) (* ?x3031 |v2:15|)) ?x1512) 6.0)))
 (let ((?x1617 (- 17.0)))
 (let ((?x2817 (* 7.0 |v2:15|)))
 (let ((?x2086 (+ (+ (+ (* 10.0 (rval2 |v9:8_st|)) (* ?x3472 (rval2 |v10:7_st|))) (* ?x3032 |v13:4|)) ?x2817)))
 (let ((?x404 (* ?x1617 ?x441)))
 (let (($x2499 (<= (+ (+ (+ (* ?x1464 ?x603) (* ?x3031 ?x441)) (* ?x1294 |v3:14|)) ?x404) 8.0)))
 (let ((?x32 (* 17.0 |v14:3|)))
 (let (($x1037 (<= (+ (+ (+ (* ?x3213 |v13:4|) (* ?x2609 |v17:0|)) (* 7.0 |v16:1|)) ?x32) ?x1376)))
 (let ((?x2370 (* 15.0 ?x673)))
 (let ((?x2363 (+ (+ (+ (* ?x1478 (rval2 |v9:8_st|)) (* 17.0 ?x673)) (* ?x1617 |v1:16|)) ?x2370)))
 (let ((?x3135 (- 9.0)))
 (let ((?x2501 (* 8.0 |v0:17|)))
 (let (($x376 (<= (+ (+ (+ (* ?x1617 |v1:16|) (* ?x3031 ?x441)) (* (- 20.0) |v15:2|)) ?x2501) ?x3135)))
 (let ((?x2945 (* 11.0 |v5:12|)))
 (let (($x1561 (<= (+ (+ (+ (* 0.0 (rval2 |v9:8_st|)) |v1:16|) (* (- 4.0) |v15:2|)) ?x2945) ?x3135)))
 (let (($x1437 (<= (+ (+ (+ (* ?x2609 |v4:13|) ?x417) (* ?x3191 |v17:0|)) (* ?x1376 |v0:17|)) ?x1294)))
 (let (($x813 (or (and (or $x1437 $x1561) (and $x376 (<= ?x2363 ?x2609))) (or (and $x1037 $x2499) (and (<= ?x2086 ?x1617) $x140)))))
 (let ((?x2861 (* 2.0 |v15:2|)))
 (let (($x2431 (<= (+ (+ (+ (* 16.0 |v4:13|) (* 6.0 |v5:12|)) (* ?x3213 |v13:4|)) ?x2861) 12.0)))
 (let ((?x2528 (- 4.0)))
 (let (($x542 (and (<= (+ (+ (+ (* 20.0 |v1:16|) ?x404) (* ?x2528 |v14:3|)) ?x2370) ?x2528) $x2431)))
 (let ((?x2555 (+ (+ (+ (* 8.0 ?x603) (* ?x251 |v4:13|)) (* ?x2527 |v4:13|)) (* ?x2609 |v16:1|))))
 (let ((?x105 (+ (+ (+ (* ?x3031 (rval2 |v10:7_st|)) (* ?x1478 (rval2 |v10:7_st|))) (* 8.0 ?x603)) (* ?x3213 (rval2 |v6:11_st|)))))
 (let ((?x539 (+ (+ (+ (* 18.0 ?x673) (* 9.0 |v14:3|)) (* ?x2528 |v13:4|)) (* ?x1464 |v16:1|))))
 (let ((?x70 (+ (+ (+ (* (- 14.0) |v4:13|) (* 13.0 |v16:1|)) (* ?x3031 |v16:1|)) (* ?x1464 |v17:0|))))
 (let ((?x1479 (- 2.0)))
 (let ((?x2558 (* 13.0 |v14:3|)))
 (let (($x1857 (<= (+ (+ (+ (* (- 14.0) |v15:2|) ?x3117) (* 10.0 |v4:13|)) ?x2558) ?x1479)))
 (let (($x1016 (<= (+ (+ (+ ?x1438 (* ?x2528 |v15:2|)) (* 9.0 |v17:0|)) (rval2 |v10:7_st|)) ?x1376)))
 (let (($x2610 (and (and (and $x1016 $x1857) (or (<= ?x70 8.0) (<= ?x539 17.0))) (or (or (<= ?x105 ?x3032) (<= ?x2555 10.0)) $x542))))
 (let ((?x411 (+ (+ (* (- 18.0) (rval2 |v9:8_st|)) (* 15.0 (rval2 |v10:7_st|))) (* (- 20.0) (rval2 |v6:11_st|)))))
 (let ((?x656 (+ (+ (+ (* ?x2609 |v12:5|) (* (- 14.0) |v1:16|)) (* ?x1376 |v15:2|)) (* (- 20.0) |v13:4|))))
 (let ((?x2352 (rval2 |v6:11_st|)))
 (let ((?x2229 (* 14.0 ?x2352)))
 (let (($x1636 (and (<= (+ (+ (+ ?x771 (* ?x2527 |v1:16|)) (* 7.0 |v15:2|)) ?x2229) ?x1617) (<= ?x656 ?x2609))))
 (let ((?x224 (* 9.0 |v4:13|)))
 (let ((?x3500 (+ (+ (+ (* ?x251 ?x673) (* ?x2527 |v12:5|)) (* 8.0 (rval2 |v10:7_st|))) ?x224)))
 (let ((?x1159 (- 14.0)))
 (let ((?x1311 (rval2 |v10:7_st|)))
 (let ((?x1905 (* ?x3031 ?x1311)))
 (let (($x3341 (<= (+ (+ (+ (* 8.0 ?x1311) (* 7.0 |v1:16|)) (* 10.0 ?x1311)) ?x1905) ?x1159)))
 (let (($x1650 (<= (+ (+ (+ (* 12.0 |v12:5|) (* ?x1376 |v13:4|)) ?x603) (* 15.0 |v0:17|)) 3.0)))
 (let ((?x547 (+ (+ (+ (* 12.0 (rval2 |v9:8_st|)) (* ?x3191 |v17:0|)) (* 0.0 |v16:1|)) (* ?x1294 |v17:0|))))
 (let ((?x1118 (+ (+ (+ (* 14.0 ?x673) (* ?x1478 |v17:0|)) (* 14.0 ?x603)) (* 9.0 ?x673))))
 (let ((?x393 (* 3.0 |v0:17|)))
 (let (($x1230 (<= (+ (+ (+ (* ?x3213 |v17:0|) (* ?x1479 |v2:15|)) (* 7.0 |v5:12|)) ?x393) ?x3135)))
 (let (($x3420 (and (or (and $x1230 (<= ?x1118 14.0)) (and (<= ?x547 8.0) $x1650)) (and (and $x3341 (<= ?x3500 ?x3191)) $x1636))))
 (let ((?x1166 (* ?x1478 |v2:15|)))
 (let (($x1873 (<= (+ (+ (+ (* 15.0 |v15:2|) (* ?x2609 ?x2352)) (* 12.0 |v4:13|)) ?x1166) ?x1159)))
 (let ((?x2695 (+ (+ (* 11.0 |v0:17|) (* ?x2528 |v0:17|)) (* ?x3135 |v5:12|))))
 (let ((?x363 (* 7.0 |v16:1|)))
 (let (($x473 (<= (+ (+ (+ (* ?x3135 ?x603) (* 4.0 |v13:4|)) (* 6.0 ?x1311)) ?x363) 12.0)))
 (let (($x2155 (or (<= (+ (+ (+ ?x771 (* ?x3032 ?x441)) ?x2969) (* ?x2527 |v3:14|)) ?x1294) $x473)))
 (let (($x3151 (<= (+ (+ (+ (* ?x1159 ?x603) (* 9.0 |v17:0|)) (* 6.0 ?x1311)) ?x1311) ?x251)))
 (let (($x2042 (<= (+ (+ (+ ?x1905 (* ?x3032 |v17:0|)) (* 2.0 |v14:3|)) (* 11.0 ?x1311)) 15.0)))
 (let (($x136 (<= (+ (+ (+ (* 2.0 |v1:16|) ?x2777) (* 2.0 |v5:12|)) (* 3.0 ?x1311)) ?x1510)))
 (let ((?x2163 (- 20.0)))
 (let ((?x2909 (+ (+ (+ (* 3.0 |v16:1|) (* ?x2163 |v0:17|)) (* ?x3472 |v5:12|)) (* ?x2609 ?x1311))))
 (let (($x3092 (and (and (or (<= ?x2909 ?x2163) $x136) (and $x2042 $x3151)) (and $x2155 (<= (+ ?x2695 (* ?x1479 |v16:1|)) 18.0)))))
 (let (($x3133 (and (or (and $x3092 $x1873) (or $x3420 (<= (+ ?x411 ?x441) 0.0))) (or (and $x2610 $x813) (and $x1952 (and $x139 $x647))))))
 (let (($x785 (not (= |v6:11_st| (RMk1 val!7085)))))
 (let (($x1017 (not (= |v7:10_st| (RMk1 val!7084)))))
 (let (($x2912 (not (= |v8:9_st| (RMk1 val!7083)))))
 (let (($x2702 (not (= |v9:8_st| (RMk1 val!7082)))))
 (let (($x1978 (not (= |v10:7_st| (RMk1 val!7081)))))
 (let (($x891 (not (= |v11:6_st| (RMk1 val!7080)))))
 (and $x891 $x1978 $x2702 $x2912 $x1017 $x785 $x3133))))))))))))))))))))))))))))))))))))))))))))))))))))))))))))))))))))))))))))))))))))))))))))))))))))))))))))))))))))))
 )
 )
 )
 )
 )
 )
 )
 )
 )
 )
 )
 )
 )
 )
 )
 )
 )
 )
(check-sat)
